
Gurobi 8.1.1 (linux64, Python) logging started Fri Nov  8 15:19:21 2019

Academic license - for non-commercial use only

Gurobi 8.1.1 (linux64, Python) logging started Fri Nov  8 15:37:52 2019

Academic license - for non-commercial use only

Gurobi 8.1.1 (linux64, Python) logging started Fri Nov  8 15:43:59 2019

Academic license - for non-commercial use only

Gurobi 8.1.1 (linux64, Python) logging started Fri Nov  8 16:17:58 2019

Academic license - for non-commercial use only

Gurobi 8.1.1 (linux64, Python) logging started Fri Nov  8 16:46:47 2019

Academic license - for non-commercial use only

Gurobi 8.1.1 (linux64, Python) logging started Fri Nov  8 17:04:35 2019

Academic license - for non-commercial use only

Gurobi 8.1.1 (linux64, Python) logging started Fri Nov  8 17:24:57 2019

Academic license - for non-commercial use only

Gurobi 8.1.1 (linux64, Python) logging started Fri Nov  8 18:07:26 2019

Academic license - for non-commercial use only

Gurobi 8.1.1 (linux64, Python) logging started Fri Nov  8 18:08:14 2019

Academic license - for non-commercial use only

Gurobi 8.1.1 (linux64, Python) logging started Fri Nov  8 18:08:36 2019

Academic license - for non-commercial use only

Gurobi 8.1.1 (linux64, Python) logging started Fri Nov  8 22:41:38 2019

Academic license - for non-commercial use only

Gurobi 8.1.1 (linux64, Python) logging started Fri Nov  8 23:09:40 2019

Academic license - for non-commercial use only

Gurobi 8.1.1 (linux64, Python) logging started Fri Nov  8 23:13:13 2019

Academic license - for non-commercial use only

Gurobi 8.1.1 (linux64, Python) logging started Fri Nov  8 23:15:21 2019

Academic license - for non-commercial use only

Gurobi 8.1.1 (linux64, Python) logging started Fri Nov  8 23:16:42 2019

Academic license - for non-commercial use only

Gurobi 8.1.1 (linux64, Python) logging started Fri Nov  8 23:38:50 2019

Academic license - for non-commercial use only

Gurobi 8.1.1 (linux64, Python) logging started Fri Nov  8 23:41:47 2019

Academic license - for non-commercial use only

Gurobi 8.1.1 (linux64, Python) logging started Fri Nov  8 23:43:10 2019

Academic license - for non-commercial use only

Gurobi 8.1.1 (linux64, Python) logging started Fri Nov  8 23:44:05 2019

Academic license - for non-commercial use only

Gurobi 8.1.1 (linux64, Python) logging started Fri Nov  8 23:46:26 2019

Academic license - for non-commercial use only

Gurobi 8.1.1 (linux64, Python) logging started Fri Nov  8 23:48:31 2019

Academic license - for non-commercial use only

Gurobi 8.1.1 (linux64, Python) logging started Fri Nov  8 23:50:30 2019

Academic license - for non-commercial use only

Gurobi 8.1.1 (linux64, Python) logging started Fri Nov  8 23:51:47 2019

Academic license - for non-commercial use only

Gurobi 8.1.1 (linux64, Python) logging started Sun Nov 10 20:51:10 2019

Academic license - for non-commercial use only

Gurobi 8.1.1 (linux64, Python) logging started Sun Nov 10 20:56:52 2019

Academic license - for non-commercial use only

Gurobi 8.1.1 (linux64, Python) logging started Sun Nov 10 20:57:05 2019

Academic license - for non-commercial use only

Gurobi 8.1.1 (linux64, Python) logging started Sun Nov 10 20:57:55 2019

Academic license - for non-commercial use only
